p tw 20 52
e 0 4
e 0 5
e 0 11
e 0 17
e 1 2
e 1 7
e 1 11
e 1 12
e 1 14
e 1 17
e 2 10
e 2 15
e 2 18
e 3 5
e 3 7
e 3 8
e 3 11
e 3 13
e 4 5
e 4 7
e 4 12
e 5 10
e 5 12
e 5 15
e 5 16
e 5 17
e 6 7
e 6 10
e 6 14
e 6 17
e 8 9
e 8 10
e 8 12
e 8 13
e 8 15
e 9 10
e 9 11
e 9 19
e 10 12
e 10 15
e 10 17
e 10 18
e 11 16
e 11 18
e 12 19
e 13 19
e 14 16
e 14 19
e 15 17
e 15 19
e 17 18
e 17 19
